unknown
(model
; cardinality of BoundSet is 3
(declare-sort BoundSet 0)
; rep: @uc_BoundSet_0
; rep: @uc_BoundSet_1
; rep: @uc_BoundSet_2
; cardinality of UnboundSet is 1
(declare-sort UnboundSet 0)
(declare-fun groundTerm_4 () UnboundSet)
(define-fun IsSnowboarding ((BOUND_VARIABLE_476 BoundSet)) Bool true)
(define-fun IsVerySmall ((BOUND_VARIABLE_476 BoundSet)) Bool true)
(define-fun IsOnSnow ((BOUND_VARIABLE_476 BoundSet)) Bool true)
(define-fun IsSunny ((BOUND_VARIABLE_476 BoundSet)) Bool true)
(define-fun IsCold ((BOUND_VARIABLE_476 BoundSet)) Bool true)
(define-fun IsYoung ((BOUND_VARIABLE_476 BoundSet)) Bool false)
(define-fun IsSizingUp ((BOUND_VARIABLE_492 BoundSet) (BOUND_VARIABLE_493 BoundSet)) Bool false)
(define-fun IsNextJump ((BOUND_VARIABLE_476 BoundSet)) Bool false)
)
sat
(model
; cardinality of BoundSet is 1
(declare-sort BoundSet 0)
; rep: @uc_BoundSet_0
; cardinality of UnboundSet is 1
(declare-sort UnboundSet 0)
(declare-fun groundTerm_6 () UnboundSet)
(define-fun IsSnowboarding ((BOUND_VARIABLE_538 BoundSet)) Bool true)
(define-fun IsVerySmall ((BOUND_VARIABLE_538 BoundSet)) Bool true)
(define-fun IsOnSnow ((BOUND_VARIABLE_538 BoundSet)) Bool true)
(define-fun IsSunny ((BOUND_VARIABLE_538 BoundSet)) Bool true)
(define-fun IsCold ((BOUND_VARIABLE_538 BoundSet)) Bool true)
(define-fun IsYoung ((BOUND_VARIABLE_538 BoundSet)) Bool false)
(define-fun IsSizingUp ((BOUND_VARIABLE_547 BoundSet) (BOUND_VARIABLE_548 BoundSet)) Bool true)
(define-fun IsNextJump ((BOUND_VARIABLE_538 BoundSet)) Bool true)
)
